NAME: tsp-48.tour
TYPE: TOUR
DIMENSION: 48
TOUR_SECTION
39 3484 2829
44 7509 3239
41 4985 140
35 23 2216
21 4483 3369
3 5530 1424
31 7545 2801
8 7265 1268
1 6734 1453
33 6426 3173
40 6271 2135
19 7732 4723
10 1112 2049
26 675 1006
13 4706 2674
23 5199 2182
14 4612 2035
4 401 841
15 6347 2683
28 7541 3981
16 6107 669
38 7392 2244
9 6898 1885
7 7573 3716
36 7248 3779
43 7280 4899
32 3245 3305
20 5900 3561
27 7555 4819
18 7462 3590
29 3177 756
37 7762 4595
46 6807 2993
11 5468 2606
17 7611 5184
12 5989 2873
48 3023 1942
5 3082 1644
24 1633 2809
42 1916 1569
47 5185 3258
25 4307 2322
2 2233 10
34 4608 1198
45 10 2676
30 7352 4506
22 6101 1110
6 7608 4458
-1